backend/data/formal_work/formal_d93b413f/formal_d93b413f_bmc/model/design_smt2.smt2
; SMT-LIBv2 description generated by Yosys 0.63+184 (git sha1 240439bdb-dirty, aarch64-apple-darwin23.5-clang++ 18.1.8 -fPIC -O3)
; yosys-smt2-module chk
(declare-sort |chk_s| 0)
(declare-fun |chk_is| (|chk_s|) Bool)
; yosys-smt2-witness {"offset": 0, "path": ["$auto$async2sync.cc:116:execute$20"], "smtname": 0, "smtoffset": 0, "type": "reg", "width": 1}
(declare-fun |chk#0| (|chk_s|) (_ BitVec 1)) ; $auto$async2sync.cc:116:execute$20
; yosys-smt2-register $auto$async2sync.cc:116:execute$20 1
(define-fun |chk_n $auto$async2sync.cc:116:execute$20| ((state |chk_s|)) Bool (= ((_ extract 0 0) (|chk#0| state)) #b1))
; yosys-smt2-witness {"offset": 0, "path": ["$auto$async2sync.cc:107:execute$16"], "smtname": 1, "smtoffset": 0, "type": "reg", "width": 1}
(declare-fun |chk#1| (|chk_s|) (_ BitVec 1)) ; $auto$async2sync.cc:107:execute$16
; yosys-smt2-register $auto$async2sync.cc:107:execute$16 1
(define-fun |chk_n $auto$async2sync.cc:107:execute$16| ((state |chk_s|)) Bool (= ((_ extract 0 0) (|chk#1| state)) #b1))
; yosys-smt2-anyinit chk#2 1 formal_d93b413f_monitor.sv:12.5-20.8
; yosys-smt2-witness {"offset": 0, "path": ["\\_va_assert_p1_triggered_1"], "smtname": 2, "smtoffset": 0, "type": "init", "width": 1}
(declare-fun |chk#2| (|chk_s|) (_ BitVec 1)) ; \_va_assert_p1_triggered_1
; yosys-smt2-register _va_assert_p1_triggered_1 1
; yosys-smt2-wire _va_assert_p1_triggered_1 1
(define-fun |chk_n _va_assert_p1_triggered_1| ((state |chk_s|)) Bool (= ((_ extract 0 0) (|chk#2| state)) #b1))
(declare-fun |chk#3| (|chk_s|) Bool) ; \a
; yosys-smt2-input a 1
; yosys-smt2-wire a 1
; yosys-smt2-witness {"offset": 0, "path": ["\\a"], "smtname": "a", "smtoffset": 0, "type": "input", "width": 1}
(define-fun |chk_n a| ((state |chk_s|)) Bool (|chk#3| state))
(declare-fun |chk#4| (|chk_s|) Bool) ; \b
(define-fun |chk#5| ((state |chk_s|)) Bool (not (or  (|chk#4| state) false))) ; $logic_not$formal_d93b413f_monitor.sv:16$3_Y
(define-fun |chk#6| ((state |chk_s|)) Bool (and (or  (= ((_ extract 0 0) (|chk#2| state)) #b1) false) (or  (|chk#5| state) false))) ; $logic_and$formal_d93b413f_monitor.sv:16$4_Y
(define-fun |chk#7| ((state |chk_s|)) (_ BitVec 1) (ite (|chk#6| state) #b1 #b0)) ; $procmux$10_Y
(declare-fun |chk#8| (|chk_s|) (_ BitVec 1)) ; \rst_n
(define-fun |chk#9| ((state |chk_s|)) (_ BitVec 1) (ite (= ((_ extract 0 0) (|chk#8| state)) #b1) (|chk#7| state) #b0)) ; \assert_p1_EN
; yosys-smt2-wire assert_p1_EN 1
(define-fun |chk_n assert_p1_EN| ((state |chk_s|)) Bool (= ((_ extract 0 0) (|chk#9| state)) #b1))
; yosys-smt2-input b 1
; yosys-smt2-wire b 1
; yosys-smt2-witness {"offset": 0, "path": ["\\b"], "smtname": "b", "smtoffset": 0, "type": "input", "width": 1}
(define-fun |chk_n b| ((state |chk_s|)) Bool (|chk#4| state))
(declare-fun |chk#10| (|chk_s|) Bool) ; \clk
; yosys-smt2-input clk 1
; yosys-smt2-wire clk 1
; yosys-smt2-clock clk posedge
; yosys-smt2-witness {"offset": 0, "path": ["\\clk"], "smtname": "clk", "smtoffset": 0, "type": "posedge", "width": 1}
; yosys-smt2-witness {"offset": 0, "path": ["\\clk"], "smtname": "clk", "smtoffset": 0, "type": "input", "width": 1}
(define-fun |chk_n clk| ((state |chk_s|)) Bool (|chk#10| state))
; yosys-smt2-input rst_n 1
; yosys-smt2-wire rst_n 1
; yosys-smt2-witness {"offset": 0, "path": ["\\rst_n"], "smtname": "rst_n", "smtoffset": 0, "type": "input", "width": 1}
(define-fun |chk_n rst_n| ((state |chk_s|)) Bool (= ((_ extract 0 0) (|chk#8| state)) #b1))
(define-fun |chk#11| ((state |chk_s|)) (_ BitVec 1) (bvnot (ite (|chk#10| state) #b1 #b0))) ; $auto$rtlil.cc:3255:Not$30
; yosys-smt2-assume 0 $auto$formalff.cc:987:execute$31
(define-fun |chk_u 0| ((state |chk_s|)) Bool (or (= ((_ extract 0 0) (|chk#11| state)) #b1) (not true))) ; $auto$formalff.cc:987:execute$31
; yosys-smt2-assert 0 assert_p1
(define-fun |chk_a 0| ((state |chk_s|)) Bool (or (= ((_ extract 0 0) (|chk#0| state)) #b1) (not (= ((_ extract 0 0) (|chk#1| state)) #b1)))) ; assert_p1
(define-fun |chk#12| ((state |chk_s|)) (_ BitVec 1) (ite (= ((_ extract 0 0) (|chk#8| state)) #b1) (ite (|chk#3| state) #b1 #b0) #b0)) ; $0\_va_assert_p1_triggered_1[0:0]
(define-fun |chk_a| ((state |chk_s|)) Bool 
  (|chk_a 0| state)
)
(define-fun |chk_u| ((state |chk_s|)) Bool 
  (|chk_u 0| state)
)
(define-fun |chk_i| ((state |chk_s|)) Bool (and
  (= (= ((_ extract 0 0) (|chk#0| state)) #b1) true) ; $auto$async2sync.cc:116:execute$20
  (= (= ((_ extract 0 0) (|chk#1| state)) #b1) false) ; $auto$async2sync.cc:107:execute$16
))
(define-fun |chk_h| ((state |chk_s|)) Bool true)
(define-fun |chk_t| ((state |chk_s|) (next_state |chk_s|)) Bool (and
  (= (|chk#12| state) (|chk#2| next_state)) ; $procdff$15 \_va_assert_p1_triggered_1
  (= (|chk#9| state) (|chk#1| next_state)) ; $auto$async2sync.cc:110:execute$18 $auto$async2sync.cc:107:execute$16
  (= #b0 (|chk#0| next_state)) ; $auto$async2sync.cc:118:execute$21 $auto$async2sync.cc:116:execute$20
)) ; end of module chk
; yosys-smt2-topmod chk
; end of yosys output
